sets/C/cp-n10-k3.vrp
NAME : cp-n10-k3
COMMENT : (Claudio Procida. Randomly generated for Beluga VRP solver)
TYPE : CVRP
DIMENSION : 10
EDGE_WEIGHT_TYPE : EUC_2D
CAPACITY : 52
NODE_COORD_SECTION
 1   3   5
 2   1   7
 3   2   3
 4   5   0
 5   5   2
 6   5   9
 7   8   4
 8   4   2
 9   4   5
10   0   7
DEMAND_SECTION
 1   0
 2  18
 3  18
 4  10
 5  22
 6  18
 7  14
 8   8
 9  13
10   9
DEPOT_SECTION
 1
-1
EOF
