sets/C/cp-n10-k3.opt
Route #1: 7 3 4
Route #2: 5 6 8
Route #3: 1 9 2
cost 36
